100 464
1 68 -1
1 94 -1
2 8 -1
2 11 1
2 18 1
2 68 1
2 73 1
2 74 -1
2 94 1
2 95 1
2 97 -1
3 6 1
3 8 -1
3 16 -1
3 26 1
3 36 1
3 64 1
3 75 1
3 84 1
3 87 -1
3 89 -1
3 90 1
3 94 -1
3 100 -1
4 12 1
4 17 1
4 20 -1
4 28 1
4 35 1
4 50 -1
4 55 -1
4 57 -1
4 64 1
4 67 1
5 8 1
5 12 -1
5 16 1
5 26 1
5 30 -1
5 31 -1
5 41 1
5 73 -1
5 90 1
6 17 -1
6 19 1
6 20 1
6 62 -1
6 92 -1
6 94 1
6 95 -1
6 97 -1
7 20 1
7 49 -1
7 63 1
7 66 -1
7 67 1
7 82 1
7 87 -1
8 15 1
8 30 1
8 36 -1
8 47 1
8 68 -1
8 86 1
8 94 -1
9 12 -1
9 13 -1
9 14 1
9 17 1
9 23 -1
9 24 1
9 27 1
9 49 1
9 51 -1
9 66 1
9 75 1
9 86 1
9 88 -1
9 91 1
10 19 -1
10 23 1
10 32 1
10 45 -1
10 61 -1
10 64 1
10 65 1
10 78 -1
10 82 -1
10 88 -1
11 25 1
11 28 1
11 29 -1
11 38 1
11 39 -1
11 41 -1
11 66 -1
11 67 1
11 70 -1
11 95 -1
12 27 1
12 35 1
12 41 1
12 54 1
12 58 -1
12 74 -1
12 75 1
12 76 1
12 82 1
12 84 1
12 85 1
12 88 1
12 92 1
13 21 1
13 24 -1
13 34 1
13 53 -1
13 67 1
13 74 -1
13 95 1
14 35 1
14 39 -1
14 40 -1
14 50 -1
14 51 1
14 62 -1
14 68 -1
14 81 -1
14 83 -1
14 98 -1
15 25 -1
15 30 -1
15 34 -1
15 37 1
15 61 -1
15 70 -1
15 71 -1
15 81 1
15 88 -1
15 95 -1
16 21 1
16 23 -1
16 30 1
16 34 1
16 52 -1
16 55 -1
16 56 1
16 71 -1
16 83 -1
17 24 1
17 40 -1
17 49 1
17 53 1
17 64 -1
17 69 -1
17 73 1
17 76 -1
17 82 -1
17 84 -1
17 89 1
18 38 -1
18 46 1
18 62 1
18 80 -1
19 34 -1
19 43 1
19 52 1
19 56 -1
19 57 -1
19 67 -1
19 84 1
19 87 -1
19 96 -1
19 98 -1
20 35 -1
20 47 1
20 54 -1
20 61 1
20 79 1
20 90 1
21 39 1
21 48 -1
21 69 -1
21 75 -1
21 81 1
21 92 1
21 97 -1
22 45 1
22 49 -1
22 66 -1
22 67 -1
22 71 -1
22 98 1
23 33 -1
23 36 -1
23 60 1
23 62 -1
23 73 -1
23 83 1
23 84 1
23 88 -1
23 93 1
23 98 1
24 31 1
24 47 1
24 64 1
24 97 -1
25 32 1
25 47 -1
25 61 1
25 70 -1
25 77 1
25 80 1
25 86 1
25 95 -1
26 41 1
26 46 -1
26 47 -1
26 48 -1
26 62 -1
26 66 1
26 69 1
26 73 -1
26 88 -1
26 90 1
26 99 1
27 35 -1
27 49 1
27 52 -1
27 84 1
28 29 1
28 38 1
28 89 1
29 30 -1
29 32 1
29 34 1
29 46 1
29 59 -1
29 60 1
29 78 -1
29 80 -1
29 85 1
29 87 -1
30 49 -1
30 57 -1
30 58 1
30 63 1
30 64 1
30 67 1
30 68 -1
30 77 1
30 87 -1
31 32 1
31 63 1
31 68 1
31 70 1
31 76 -1
32 33 1
32 47 -1
32 49 -1
32 50 1
32 53 -1
32 79 1
32 87 -1
32 96 1
32 99 -1
33 49 -1
33 66 1
34 37 1
34 38 1
34 42 -1
34 52 1
34 56 -1
34 71 -1
34 78 1
34 86 1
34 94 1
34 100 1
35 53 -1
35 64 -1
35 69 -1
35 70 1
35 74 -1
35 76 -1
36 76 -1
36 91 -1
36 100 -1
38 42 1
38 52 -1
38 61 -1
38 64 1
38 74 1
38 78 1
38 90 1
39 62 -1
39 77 1
40 56 -1
40 59 1
40 61 1
40 64 1
41 43 1
41 44 1
41 60 -1
41 73 1
41 74 1
41 79 1
41 80 -1
42 43 1
42 50 1
42 69 1
42 79 1
42 84 1
42 91 -1
42 97 1
43 45 -1
43 51 -1
43 53 1
43 62 -1
43 77 -1
44 50 -1
44 59 -1
44 61 1
44 67 1
44 84 1
44 88 1
45 47 -1
45 76 1
46 51 1
46 62 1
46 65 -1
46 72 -1
46 79 -1
46 86 -1
46 95 1
47 60 -1
47 74 1
47 76 -1
47 79 1
48 49 1
48 61 -1
48 78 1
48 89 1
49 56 -1
49 66 1
49 68 -1
49 70 1
49 80 1
49 99 -1
50 67 1
50 78 -1
50 82 -1
50 92 -1
50 95 -1
50 96 -1
51 55 -1
51 57 -1
51 91 1
51 96 1
51 99 1
52 56 1
52 60 -1
52 70 1
52 82 -1
52 89 -1
52 98 1
53 58 -1
53 73 1
53 90 1
54 70 1
54 82 -1
54 84 -1
54 87 -1
54 89 1
54 95 1
55 87 -1
55 94 -1
56 63 -1
56 64 -1
56 71 -1
56 83 1
56 88 1
57 63 -1
57 68 -1
58 73 -1
58 88 -1
58 95 1
59 87 1
59 90 1
59 91 1
59 98 -1
60 79 -1
60 82 -1
60 96 1
61 71 1
62 97 1
64 82 -1
64 83 1
65 75 1
65 76 -1
65 89 1
65 94 -1
66 75 -1
66 98 1
67 68 1
68 70 -1
68 73 1
68 85 1
68 91 1
69 78 1
69 95 1
70 78 1
70 82 1
70 87 -1
70 92 -1
70 93 1
71 73 1
71 86 1
72 76 -1
73 76 -1
73 82 -1
73 88 1
73 99 1
74 80 1
74 91 -1
75 77 -1
75 89 -1
78 80 1
78 98 1
78 99 1
79 81 -1
79 96 -1
80 93 1
81 91 -1
81 93 1
82 90 -1
82 93 -1
82 94 -1
83 86 -1
83 91 -1
83 95 1
83 100 1
84 90 1
84 94 1
84 95 -1
84 99 -1
84 100 -1
85 89 1
85 90 -1
85 91 -1
85 92 1
85 93 -1
86 93 1
86 99 1
86 100 -1
87 95 1
88 94 1
90 93 -1
90 98 1
91 93 -1
91 96 1
93 96 -1
94 98 1
96 99 -1
97 100 1
98 99 -1
